multiobj/instances/uniform/Ter.5.2.0.80.1.in
5 2
0 771 544 977 248 
771 0 574 244 593 
544 574 0 691 433 
977 244 691 0 73 
248 593 433 73 0 
0 943 409 732 660 
943 0 842 746 386 
409 842 0 116 213 
732 746 116 0 285 
660 386 213 285 0 
0 943 414 610 698 
943 0 701 758 212 
414 701 0 149 110 
610 758 149 0 405 
698 212 110 405 0 
