multiobj/solutions/Ter.5.2.0.80.1.out
1 2
4 3 1 2 0 
4551830 4088354 
